&dos
outdir ='./' 
prefix='GaN' 
fildos='GaN.dos' 
bz_sum='tetrahedra'
/ 
