&bands 
outdir ='./' 
prefix='GaN' 
filband='GaN.band' 
lsym= .true. 
/ 
