&dos
outdir ='./tmp' 
prefix='graphene' 
bz_sum='tetrahedra'
fildos='gr.dos' 
/ 
