&input zasr='crystal', fildyn='Si.dyn', flfrc='Si.fc'/
