&control
    calculation='scf'
    restart_mode='from_scratch',
    pseudo_dir =  './'
    outdir='./'
    prefix='Si'
    wf_collect = .true.
/
&system
     ibrav=2, 
     celldm(1)=10.35092
     nat=2, 
     ntyp=1,
     nspin = 1,
     ecutwfc = 80.0, 
/
&electrons
    conv_thr = 1.0e-8
    mixing_beta = 0.4
/

ATOMIC_SPECIES
Si  28.0855 Si_ONCV_PBE-1.1.upf 
ATOMIC_POSITIONS crystal
 Si 0.00 0.00 0.00
 Si 0.25 0.25 0.25
K_POINTS automatic
10 10 10 0 0 0
